PARAMETER_FILE = even/LKH_uncomplete_graph/x10/seg/par/random137.par
PROBLEM_FILE = even/LKH_uncomplete_graph/x10/seg/mat/random137.tsp
Successes/Runs = 0/10
Cost.min = 907, Cost.avg = 907.00, Cost.max = 907
Gap.min = 0.0000%, Gap.avg = 0.0000%, Gap.max = 0.0000%
Trials.min = 1000, Trials.avg = 1000.0, Trials.max = 1000
Time.min = 0.43 sec., Time.avg = 1.50 sec., Time.max = 1.90 sec.
Time.total = 15.14 sec.
请按任意键继续. . . 
